Welcome to the CBC MILP Solver 
Version: 2.10.3 
Build Date: Dec 15 2019 

command line - /home/cdmonsalvea/AI_OR_Workflow/.venv/lib/python3.10/site-packages/pulp/solverdir/cbc/linux/64/cbc /tmp/6d25573f51b045c597359a69f5f7be62-pulp.mps -sec 3600 -timeMode elapsed -branch -printingOptions all -solution /tmp/6d25573f51b045c597359a69f5f7be62-pulp.sol (default strategy 1)
At line 2 NAME          MODEL
At line 3 ROWS
At line 25 COLUMNS
At line 356 RHS
At line 377 BOUNDS
At line 388 ENDATA
Problem MODEL has 20 rows, 110 columns and 210 elements
Coin0008I MODEL read with 0 errors
seconds was changed from 1e+100 to 3600
Option for timeMode changed from cpu to elapsed
Continuous objective value is 5.75017e+06 - 0.00 seconds
Cgl0004I processed model has 20 rows, 110 columns (10 integer (10 of which binary)) and 210 elements
Cbc0038I Initial state - 10 integers unsatisfied sum - 1.71303
Cbc0038I Pass   1: suminf.    0.15179 (1) obj. 3.24674e+08 iterations 10
Cbc0038I Solution found of 3.25146e+08
Cbc0038I Relaxing continuous gives 3.14302e+08
Cbc0038I Before mini branch and bound, 0 integers at bound fixed and 81 continuous
Cbc0038I Full problem 20 rows 110 columns, reduced to 18 rows 25 columns
Cbc0038I Mini branch and bound improved solution from 3.14302e+08 to 3.10437e+07 (0.00 seconds)
Cbc0038I Freeing continuous variables gives a solution of 2.96053e+07
Cbc0038I Round again with cutoff of 2.72198e+07
Cbc0038I Pass   2: suminf.    0.86308 (6) obj. 2.72198e+07 iterations 9
Cbc0038I Pass   3: suminf.    0.28714 (3) obj. 2.72198e+07 iterations 11
Cbc0038I Pass   4: suminf.    0.40916 (2) obj. 2.72198e+07 iterations 6
Cbc0038I Pass   5: suminf.    0.40916 (2) obj. 2.72198e+07 iterations 0
Cbc0038I Pass   6: suminf.    0.74895 (2) obj. 2.72198e+07 iterations 1
Cbc0038I Pass   7: suminf.    0.55882 (2) obj. 2.72198e+07 iterations 1
Cbc0038I Pass   8: suminf.    0.61975 (3) obj. 2.72198e+07 iterations 4
Cbc0038I Pass   9: suminf.    0.31028 (2) obj. 2.72198e+07 iterations 7
Cbc0038I Pass  10: suminf.    0.05182 (1) obj. 2.72198e+07 iterations 5
Cbc0038I Pass  11: suminf.    0.01519 (1) obj. 2.72198e+07 iterations 2
Cbc0038I Pass  12: suminf.    0.28743 (3) obj. 2.72198e+07 iterations 5
Cbc0038I Pass  13: suminf.    0.40916 (2) obj. 2.72198e+07 iterations 6
Cbc0038I Pass  14: suminf.    0.40916 (2) obj. 2.72198e+07 iterations 0
Cbc0038I Pass  15: suminf.    0.74895 (2) obj. 2.72198e+07 iterations 1
Cbc0038I Pass  16: suminf.    0.55882 (2) obj. 2.72198e+07 iterations 1
Cbc0038I Pass  17: suminf.    1.05740 (3) obj. 2.72198e+07 iterations 2
Cbc0038I Pass  18: suminf.    0.55882 (2) obj. 2.72198e+07 iterations 2
Cbc0038I Pass  19: suminf.    0.40916 (2) obj. 2.72198e+07 iterations 3
Cbc0038I Pass  20: suminf.    0.40916 (2) obj. 2.72198e+07 iterations 0
Cbc0038I Pass  21: suminf.    0.74895 (2) obj. 2.72198e+07 iterations 1
Cbc0038I Pass  22: suminf.    0.40916 (2) obj. 2.72198e+07 iterations 1
Cbc0038I Pass  23: suminf.    0.74895 (2) obj. 2.72198e+07 iterations 1
Cbc0038I Pass  24: suminf.    0.55882 (2) obj. 2.72198e+07 iterations 1
Cbc0038I Pass  25: suminf.    0.40916 (2) obj. 2.72198e+07 iterations 3
Cbc0038I Pass  26: suminf.    0.40916 (2) obj. 2.72198e+07 iterations 0
Cbc0038I Pass  27: suminf.    0.34122 (3) obj. 2.72198e+07 iterations 3
Cbc0038I Pass  28: suminf.    0.31625 (4) obj. 2.72198e+07 iterations 1
Cbc0038I Pass  29: suminf.    0.79400 (6) obj. 2.72198e+07 iterations 3
Cbc0038I Pass  30: suminf.    0.31575 (5) obj. 2.72198e+07 iterations 2
Cbc0038I Pass  31: suminf.    0.75238 (7) obj. 2.72198e+07 iterations 4
Cbc0038I No solution found this major pass
Cbc0038I Before mini branch and bound, 0 integers at bound fixed and 80 continuous
Cbc0038I Full problem 20 rows 110 columns, reduced to 16 rows 26 columns
Cbc0038I Mini branch and bound improved solution from 2.96053e+07 to 2.8124e+07 (0.01 seconds)
Cbc0038I Freeing continuous variables gives a solution of 2.75376e+07
Cbc0038I Round again with cutoff of 2.29258e+07
Cbc0038I Pass  31: suminf.    0.89060 (7) obj. 2.29258e+07 iterations 1
Cbc0038I Pass  32: suminf.    0.55463 (4) obj. 2.29258e+07 iterations 12
Cbc0038I Pass  33: suminf.    0.55463 (4) obj. 2.29258e+07 iterations 0
Cbc0038I Pass  34: suminf.    0.82550 (4) obj. 2.29258e+07 iterations 5
Cbc0038I Pass  35: suminf.    0.82550 (4) obj. 2.29258e+07 iterations 0
Cbc0038I Pass  36: suminf.    0.89181 (4) obj. 2.29258e+07 iterations 2
Cbc0038I Pass  37: suminf.    0.89181 (4) obj. 2.29258e+07 iterations 0
Cbc0038I Pass  38: suminf.    0.82550 (4) obj. 2.29258e+07 iterations 1
Cbc0038I Pass  39: suminf.    0.64219 (3) obj. 2.29258e+07 iterations 3
Cbc0038I Pass  40: suminf.    0.82550 (4) obj. 2.29258e+07 iterations 3
Cbc0038I Pass  41: suminf.    0.82550 (4) obj. 2.29258e+07 iterations 0
Cbc0038I Pass  42: suminf.    0.89181 (4) obj. 2.29258e+07 iterations 2
Cbc0038I Pass  43: suminf.    0.89181 (4) obj. 2.29258e+07 iterations 0
Cbc0038I Pass  44: suminf.    1.38471 (6) obj. 2.29258e+07 iterations 6
Cbc0038I Pass  45: suminf.    0.95099 (5) obj. 2.29258e+07 iterations 2
Cbc0038I Pass  46: suminf.    0.82550 (4) obj. 2.29258e+07 iterations 6
Cbc0038I Pass  47: suminf.    0.82550 (4) obj. 2.29258e+07 iterations 0
Cbc0038I Pass  48: suminf.    0.89181 (4) obj. 2.29258e+07 iterations 2
Cbc0038I Pass  49: suminf.    0.89181 (4) obj. 2.29258e+07 iterations 0
Cbc0038I Pass  50: suminf.    0.82550 (4) obj. 2.29258e+07 iterations 1
Cbc0038I Pass  51: suminf.    0.17078 (3) obj. 2.29258e+07 iterations 5
Cbc0038I Pass  52: suminf.    0.82550 (4) obj. 2.29258e+07 iterations 5
Cbc0038I Pass  53: suminf.    0.82550 (4) obj. 2.29258e+07 iterations 0
Cbc0038I Pass  54: suminf.    0.89181 (4) obj. 2.29258e+07 iterations 2
Cbc0038I Pass  55: suminf.    0.89181 (4) obj. 2.29258e+07 iterations 0
Cbc0038I Pass  56: suminf.    0.82550 (4) obj. 2.29258e+07 iterations 1
Cbc0038I Pass  57: suminf.    0.74193 (4) obj. 2.29258e+07 iterations 6
Cbc0038I Pass  58: suminf.    0.36881 (3) obj. 2.29258e+07 iterations 1
Cbc0038I Pass  59: suminf.    0.11968 (3) obj. 2.29258e+07 iterations 1
Cbc0038I Pass  60: suminf.    0.82550 (4) obj. 2.29258e+07 iterations 4
Cbc0038I No solution found this major pass
Cbc0038I Before mini branch and bound, 0 integers at bound fixed and 84 continuous
Cbc0038I Full problem 20 rows 110 columns, reduced to 9 rows 14 columns
Cbc0038I Mini branch and bound did not improve solution (0.01 seconds)
Cbc0038I After 0.01 seconds - Feasibility pump exiting with objective of 2.75376e+07 - took 0.01 seconds
Cbc0012I Integer solution of 27537553 found by feasibility pump after 0 iterations and 0 nodes (0.01 seconds)
Cbc0031I 11 added rows had average density of 10.909091
Cbc0013I At root node, 13 cuts changed objective from 5750170.1 to 27537553 in 2 passes
Cbc0014I Cut generator 0 (Probing) - 3 row cuts average 2.0 elements, 0 column cuts (0 active)  in 0.000 seconds - new frequency is 1
Cbc0014I Cut generator 1 (Gomory) - 11 row cuts average 10.9 elements, 0 column cuts (0 active)  in 0.000 seconds - new frequency is 1
Cbc0014I Cut generator 2 (Knapsack) - 0 row cuts average 0.0 elements, 0 column cuts (0 active)  in 0.000 seconds - new frequency is -100
Cbc0014I Cut generator 3 (Clique) - 0 row cuts average 0.0 elements, 0 column cuts (0 active)  in 0.000 seconds - new frequency is -100
Cbc0014I Cut generator 4 (MixedIntegerRounding2) - 0 row cuts average 0.0 elements, 0 column cuts (0 active)  in 0.000 seconds - new frequency is -100
Cbc0014I Cut generator 5 (FlowCover) - 0 row cuts average 0.0 elements, 0 column cuts (0 active)  in 0.000 seconds - new frequency is -100
Cbc0014I Cut generator 6 (TwoMirCuts) - 11 row cuts average 10.9 elements, 0 column cuts (0 active)  in 0.000 seconds - new frequency is 1
Cbc0001I Search completed - best objective 27537552.84873516, took 11 iterations and 0 nodes (0.01 seconds)
Cbc0035I Maximum depth 0, 0 variables fixed on reduced cost
Cuts at root node changed objective from 5.75017e+06 to 2.75376e+07
Probing was tried 2 times and created 3 cuts of which 0 were active after adding rounds of cuts (0.000 seconds)
Gomory was tried 2 times and created 11 cuts of which 0 were active after adding rounds of cuts (0.000 seconds)
Knapsack was tried 2 times and created 0 cuts of which 0 were active after adding rounds of cuts (0.000 seconds)
Clique was tried 2 times and created 0 cuts of which 0 were active after adding rounds of cuts (0.000 seconds)
MixedIntegerRounding2 was tried 2 times and created 0 cuts of which 0 were active after adding rounds of cuts (0.000 seconds)
FlowCover was tried 2 times and created 0 cuts of which 0 were active after adding rounds of cuts (0.000 seconds)
TwoMirCuts was tried 2 times and created 11 cuts of which 0 were active after adding rounds of cuts (0.000 seconds)
ZeroHalf was tried 1 times and created 0 cuts of which 0 were active after adding rounds of cuts (0.000 seconds)

Result - Optimal solution found

Objective value:                27537552.84873516
Enumerated nodes:               0
Total iterations:               11
Time (CPU seconds):             0.01
Time (Wallclock seconds):       0.01

Option for printingOptions changed from normal to all
Total time (CPU seconds):       0.01   (Wallclock seconds):       0.01

